
c--------------------------------------------------------------
c	Ferhat Erata
c	CPSC 454/554
c	Tue Nov 26 2019	21:16:53
c--------------------------------------------------------------
s UNSATISFIABLE
c--------------------------------------------------------------
c statistics of ../../bench3/dubois21.cnf:
c [ mem_used: 1814, conflicts: 0, max_lemmas: 2000 ]
c--------------------------------------------------------------
c	Normal termination.
